c  Cheryian Graph
c n = 40, m = 20, c = 10, total vertices 886 
p max 887 1003
n 1 s
n 887 t
a 1 404 40
a 1 394 40
a 1 384 40
a 1 374 40
a 1 364 40
a 1 354 40
a 1 344 40
a 1 334 40
a 1 324 40
a 1 314 40
a 1 304 40
a 1 294 40
a 1 284 40
a 1 274 40
a 1 264 40
a 1 254 40
a 1 244 40
a 1 234 40
a 1 224 40
a 1 214 40
a 1 204 40
a 1 194 40
a 1 184 40
a 1 174 40
a 1 164 40
a 1 154 40
a 1 144 40
a 1 134 40
a 1 124 40
a 1 114 40
a 1 104 40
a 1 94 40
a 1 84 40
a 1 74 40
a 1 64 40
a 1 54 40
a 1 44 40
a 1 34 40
a 1 24 40
a 1 14 40
a 2 805 40
a 2 604 40
a 2 594 40
a 2 584 40
a 2 574 40
a 2 564 40
a 2 554 40
a 2 544 40
a 2 534 40
a 2 524 40
a 2 514 40
a 2 504 40
a 2 494 40
a 2 484 40
a 2 474 40
a 2 464 40
a 2 454 40
a 2 444 40
a 2 434 40
a 2 424 40
a 2 414 40
a 3 804 40
a 3 794 40
a 3 784 40
a 3 774 40
a 3 764 40
a 3 754 40
a 3 744 40
a 3 734 40
a 3 724 40
a 3 714 40
a 3 704 40
a 3 694 40
a 3 684 40
a 3 674 40
a 3 664 40
a 3 654 40
a 3 644 40
a 3 634 40
a 3 624 40
a 3 614 40
a 4 887 2000
a 5 2 2000
a 6 5 2000
a 7 6 2000
a 8 7 2000
a 9 8 2000
a 10 9 2000
a 11 10 2000
a 12 11 2000
a 13 12 2000
a 14 13 2000
a 15 14 2000
a 16 15 2000
a 17 16 2000
a 18 17 2000
a 19 18 2000
a 20 19 2000
a 21 20 2000
a 22 21 2000
a 23 22 2000
a 24 23 2000
a 25 24 2000
a 26 25 2000
a 27 26 2000
a 28 27 2000
a 29 28 2000
a 30 29 2000
a 31 30 2000
a 32 31 2000
a 33 32 2000
a 34 33 2000
a 35 34 2000
a 36 35 2000
a 37 36 2000
a 38 37 2000
a 39 38 2000
a 40 39 2000
a 41 40 2000
a 42 41 2000
a 43 42 2000
a 44 43 2000
a 45 44 2000
a 46 45 2000
a 47 46 2000
a 48 47 2000
a 49 48 2000
a 50 49 2000
a 51 50 2000
a 52 51 2000
a 53 52 2000
a 54 53 2000
a 55 54 2000
a 56 55 2000
a 57 56 2000
a 58 57 2000
a 59 58 2000
a 60 59 2000
a 61 60 2000
a 62 61 2000
a 63 62 2000
a 64 63 2000
a 65 64 2000
a 66 65 2000
a 67 66 2000
a 68 67 2000
a 69 68 2000
a 70 69 2000
a 71 70 2000
a 72 71 2000
a 73 72 2000
a 74 73 2000
a 75 74 2000
a 76 75 2000
a 77 76 2000
a 78 77 2000
a 79 78 2000
a 80 79 2000
a 81 80 2000
a 82 81 2000
a 83 82 2000
a 84 83 2000
a 85 84 2000
a 86 85 2000
a 87 86 2000
a 88 87 2000
a 89 88 2000
a 90 89 2000
a 91 90 2000
a 92 91 2000
a 93 92 2000
a 94 93 2000
a 95 94 2000
a 96 95 2000
a 97 96 2000
a 98 97 2000
a 99 98 2000
a 100 99 2000
a 101 100 2000
a 102 101 2000
a 103 102 2000
a 104 103 2000
a 105 104 2000
a 106 105 2000
a 107 106 2000
a 108 107 2000
a 109 108 2000
a 110 109 2000
a 111 110 2000
a 112 111 2000
a 113 112 2000
a 114 113 2000
a 115 114 2000
a 116 115 2000
a 117 116 2000
a 118 117 2000
a 119 118 2000
a 120 119 2000
a 121 120 2000
a 122 121 2000
a 123 122 2000
a 124 123 2000
a 125 124 2000
a 126 125 2000
a 127 126 2000
a 128 127 2000
a 129 128 2000
a 130 129 2000
a 131 130 2000
a 132 131 2000
a 133 132 2000
a 134 133 2000
a 135 134 2000
a 136 135 2000
a 137 136 2000
a 138 137 2000
a 139 138 2000
a 140 139 2000
a 141 140 2000
a 142 141 2000
a 143 142 2000
a 144 143 2000
a 145 144 2000
a 146 145 2000
a 147 146 2000
a 148 147 2000
a 149 148 2000
a 150 149 2000
a 151 150 2000
a 152 151 2000
a 153 152 2000
a 154 153 2000
a 155 154 2000
a 156 155 2000
a 157 156 2000
a 158 157 2000
a 159 158 2000
a 160 159 2000
a 161 160 2000
a 162 161 2000
a 163 162 2000
a 164 163 2000
a 165 164 2000
a 166 165 2000
a 167 166 2000
a 168 167 2000
a 169 168 2000
a 170 169 2000
a 171 170 2000
a 172 171 2000
a 173 172 2000
a 174 173 2000
a 175 174 2000
a 176 175 2000
a 177 176 2000
a 178 177 2000
a 179 178 2000
a 180 179 2000
a 181 180 2000
a 182 181 2000
a 183 182 2000
a 184 183 2000
a 185 184 2000
a 186 185 2000
a 187 186 2000
a 188 187 2000
a 189 188 2000
a 190 189 2000
a 191 190 2000
a 192 191 2000
a 193 192 2000
a 194 193 2000
a 195 194 2000
a 196 195 2000
a 197 196 2000
a 198 197 2000
a 199 198 2000
a 200 199 2000
a 201 200 2000
a 202 201 2000
a 203 202 2000
a 204 203 2000
a 205 3 2000
a 206 205 2000
a 207 206 2000
a 208 207 2000
a 209 208 2000
a 210 209 2000
a 211 210 2000
a 212 211 2000
a 213 212 2000
a 214 213 2000
a 215 214 2000
a 216 215 2000
a 217 216 2000
a 218 217 2000
a 219 218 2000
a 220 219 2000
a 221 220 2000
a 222 221 2000
a 223 222 2000
a 224 223 2000
a 225 224 2000
a 226 225 2000
a 227 226 2000
a 228 227 2000
a 229 228 2000
a 230 229 2000
a 231 230 2000
a 232 231 2000
a 233 232 2000
a 234 233 2000
a 235 234 2000
a 236 235 2000
a 237 236 2000
a 238 237 2000
a 239 238 2000
a 240 239 2000
a 241 240 2000
a 242 241 2000
a 243 242 2000
a 244 243 2000
a 245 244 2000
a 246 245 2000
a 247 246 2000
a 248 247 2000
a 249 248 2000
a 250 249 2000
a 251 250 2000
a 252 251 2000
a 253 252 2000
a 254 253 2000
a 255 254 2000
a 256 255 2000
a 257 256 2000
a 258 257 2000
a 259 258 2000
a 260 259 2000
a 261 260 2000
a 262 261 2000
a 263 262 2000
a 264 263 2000
a 265 264 2000
a 266 265 2000
a 267 266 2000
a 268 267 2000
a 269 268 2000
a 270 269 2000
a 271 270 2000
a 272 271 2000
a 273 272 2000
a 274 273 2000
a 275 274 2000
a 276 275 2000
a 277 276 2000
a 278 277 2000
a 279 278 2000
a 280 279 2000
a 281 280 2000
a 282 281 2000
a 283 282 2000
a 284 283 2000
a 285 284 2000
a 286 285 2000
a 287 286 2000
a 288 287 2000
a 289 288 2000
a 290 289 2000
a 291 290 2000
a 292 291 2000
a 293 292 2000
a 294 293 2000
a 295 294 2000
a 296 295 2000
a 297 296 2000
a 298 297 2000
a 299 298 2000
a 300 299 2000
a 301 300 2000
a 302 301 2000
a 303 302 2000
a 304 303 2000
a 305 304 2000
a 306 305 2000
a 307 306 2000
a 308 307 2000
a 309 308 2000
a 310 309 2000
a 311 310 2000
a 312 311 2000
a 313 312 2000
a 314 313 2000
a 315 314 2000
a 316 315 2000
a 317 316 2000
a 318 317 2000
a 319 318 2000
a 320 319 2000
a 321 320 2000
a 322 321 2000
a 323 322 2000
a 324 323 2000
a 325 324 2000
a 326 325 2000
a 327 326 2000
a 328 327 2000
a 329 328 2000
a 330 329 2000
a 331 330 2000
a 332 331 2000
a 333 332 2000
a 334 333 2000
a 335 334 2000
a 336 335 2000
a 337 336 2000
a 338 337 2000
a 339 338 2000
a 340 339 2000
a 341 340 2000
a 342 341 2000
a 343 342 2000
a 344 343 2000
a 345 344 2000
a 346 345 2000
a 347 346 2000
a 348 347 2000
a 349 348 2000
a 350 349 2000
a 351 350 2000
a 352 351 2000
a 353 352 2000
a 354 353 2000
a 355 354 2000
a 356 355 2000
a 357 356 2000
a 358 357 2000
a 359 358 2000
a 360 359 2000
a 361 360 2000
a 362 361 2000
a 363 362 2000
a 364 363 2000
a 365 364 2000
a 366 365 2000
a 367 366 2000
a 368 367 2000
a 369 368 2000
a 370 369 2000
a 371 370 2000
a 372 371 2000
a 373 372 2000
a 374 373 2000
a 375 374 2000
a 376 375 2000
a 377 376 2000
a 378 377 2000
a 379 378 2000
a 380 379 2000
a 381 380 2000
a 382 381 2000
a 383 382 2000
a 384 383 2000
a 385 384 2000
a 386 385 2000
a 387 386 2000
a 388 387 2000
a 389 388 2000
a 390 389 2000
a 391 390 2000
a 392 391 2000
a 393 392 2000
a 394 393 2000
a 395 394 2000
a 396 395 2000
a 397 396 2000
a 398 397 2000
a 399 398 2000
a 400 399 2000
a 401 400 2000
a 402 401 2000
a 403 402 2000
a 404 403 2000
a 405 4 2000
a 406 405 2000
a 407 406 2000
a 408 407 2000
a 409 408 2000
a 410 409 2000
a 411 410 2000
a 412 411 2000
a 413 412 2000
a 414 413 2000
a 415 414 2000
a 416 415 2000
a 417 416 2000
a 418 417 2000
a 419 418 2000
a 420 419 2000
a 421 420 2000
a 422 421 2000
a 423 422 2000
a 424 423 2000
a 425 424 2000
a 426 425 2000
a 427 426 2000
a 428 427 2000
a 429 428 2000
a 430 429 2000
a 431 430 2000
a 432 431 2000
a 433 432 2000
a 434 433 2000
a 435 434 2000
a 436 435 2000
a 437 436 2000
a 438 437 2000
a 439 438 2000
a 440 439 2000
a 441 440 2000
a 442 441 2000
a 443 442 2000
a 444 443 2000
a 445 444 2000
a 446 445 2000
a 447 446 2000
a 448 447 2000
a 449 448 2000
a 450 449 2000
a 451 450 2000
a 452 451 2000
a 453 452 2000
a 454 453 2000
a 455 454 2000
a 456 455 2000
a 457 456 2000
a 458 457 2000
a 459 458 2000
a 460 459 2000
a 461 460 2000
a 462 461 2000
a 463 462 2000
a 464 463 2000
a 465 464 2000
a 466 465 2000
a 467 466 2000
a 468 467 2000
a 469 468 2000
a 470 469 2000
a 471 470 2000
a 472 471 2000
a 473 472 2000
a 474 473 2000
a 475 474 2000
a 476 475 2000
a 477 476 2000
a 478 477 2000
a 479 478 2000
a 480 479 2000
a 481 480 2000
a 482 481 2000
a 483 482 2000
a 484 483 2000
a 485 484 2000
a 486 485 2000
a 487 486 2000
a 488 487 2000
a 489 488 2000
a 490 489 2000
a 491 490 2000
a 492 491 2000
a 493 492 2000
a 494 493 2000
a 495 494 2000
a 496 495 2000
a 497 496 2000
a 498 497 2000
a 499 498 2000
a 500 499 2000
a 501 500 2000
a 502 501 2000
a 503 502 2000
a 504 503 2000
a 505 504 2000
a 506 505 2000
a 507 506 2000
a 508 507 2000
a 509 508 2000
a 510 509 2000
a 511 510 2000
a 512 511 2000
a 513 512 2000
a 514 513 2000
a 515 514 2000
a 516 515 2000
a 517 516 2000
a 518 517 2000
a 519 518 2000
a 520 519 2000
a 521 520 2000
a 522 521 2000
a 523 522 2000
a 524 523 2000
a 525 524 2000
a 526 525 2000
a 527 526 2000
a 528 527 2000
a 529 528 2000
a 530 529 2000
a 531 530 2000
a 532 531 2000
a 533 532 2000
a 534 533 2000
a 535 534 2000
a 536 535 2000
a 537 536 2000
a 538 537 2000
a 539 538 2000
a 540 539 2000
a 541 540 2000
a 542 541 2000
a 543 542 2000
a 544 543 2000
a 545 544 2000
a 546 545 2000
a 547 546 2000
a 548 547 2000
a 549 548 2000
a 550 549 2000
a 551 550 2000
a 552 551 2000
a 553 552 2000
a 554 553 2000
a 555 554 2000
a 556 555 2000
a 557 556 2000
a 558 557 2000
a 559 558 2000
a 560 559 2000
a 561 560 2000
a 562 561 2000
a 563 562 2000
a 564 563 2000
a 565 564 2000
a 566 565 2000
a 567 566 2000
a 568 567 2000
a 569 568 2000
a 570 569 2000
a 571 570 2000
a 572 571 2000
a 573 572 2000
a 574 573 2000
a 575 574 2000
a 576 575 2000
a 577 576 2000
a 578 577 2000
a 579 578 2000
a 580 579 2000
a 581 580 2000
a 582 581 2000
a 583 582 2000
a 584 583 2000
a 585 584 2000
a 586 585 2000
a 587 586 2000
a 588 587 2000
a 589 588 2000
a 590 589 2000
a 591 590 2000
a 592 591 2000
a 593 592 2000
a 594 593 2000
a 595 594 2000
a 596 595 2000
a 597 596 2000
a 598 597 2000
a 599 598 2000
a 600 599 2000
a 601 600 2000
a 602 601 2000
a 603 602 2000
a 604 603 2000
a 605 4 2000
a 606 605 2000
a 607 606 2000
a 608 607 2000
a 609 608 2000
a 610 609 2000
a 611 610 2000
a 612 611 2000
a 613 612 2000
a 614 613 2000
a 615 614 2000
a 616 615 2000
a 617 616 2000
a 618 617 2000
a 619 618 2000
a 620 619 2000
a 621 620 2000
a 622 621 2000
a 623 622 2000
a 624 623 2000
a 625 624 2000
a 626 625 2000
a 627 626 2000
a 628 627 2000
a 629 628 2000
a 630 629 2000
a 631 630 2000
a 632 631 2000
a 633 632 2000
a 634 633 2000
a 635 634 2000
a 636 635 2000
a 637 636 2000
a 638 637 2000
a 639 638 2000
a 640 639 2000
a 641 640 2000
a 642 641 2000
a 643 642 2000
a 644 643 2000
a 645 644 2000
a 646 645 2000
a 647 646 2000
a 648 647 2000
a 649 648 2000
a 650 649 2000
a 651 650 2000
a 652 651 2000
a 653 652 2000
a 654 653 2000
a 655 654 2000
a 656 655 2000
a 657 656 2000
a 658 657 2000
a 659 658 2000
a 660 659 2000
a 661 660 2000
a 662 661 2000
a 663 662 2000
a 664 663 2000
a 665 664 2000
a 666 665 2000
a 667 666 2000
a 668 667 2000
a 669 668 2000
a 670 669 2000
a 671 670 2000
a 672 671 2000
a 673 672 2000
a 674 673 2000
a 675 674 2000
a 676 675 2000
a 677 676 2000
a 678 677 2000
a 679 678 2000
a 680 679 2000
a 681 680 2000
a 682 681 2000
a 683 682 2000
a 684 683 2000
a 685 684 2000
a 686 685 2000
a 687 686 2000
a 688 687 2000
a 689 688 2000
a 690 689 2000
a 691 690 2000
a 692 691 2000
a 693 692 2000
a 694 693 2000
a 695 694 2000
a 696 695 2000
a 697 696 2000
a 698 697 2000
a 699 698 2000
a 700 699 2000
a 701 700 2000
a 702 701 2000
a 703 702 2000
a 704 703 2000
a 705 704 2000
a 706 705 2000
a 707 706 2000
a 708 707 2000
a 709 708 2000
a 710 709 2000
a 711 710 2000
a 712 711 2000
a 713 712 2000
a 714 713 2000
a 715 714 2000
a 716 715 2000
a 717 716 2000
a 718 717 2000
a 719 718 2000
a 720 719 2000
a 721 720 2000
a 722 721 2000
a 723 722 2000
a 724 723 2000
a 725 724 2000
a 726 725 2000
a 727 726 2000
a 728 727 2000
a 729 728 2000
a 730 729 2000
a 731 730 2000
a 732 731 2000
a 733 732 2000
a 734 733 2000
a 735 734 2000
a 736 735 2000
a 737 736 2000
a 738 737 2000
a 739 738 2000
a 740 739 2000
a 741 740 2000
a 742 741 2000
a 743 742 2000
a 744 743 2000
a 745 744 2000
a 746 745 2000
a 747 746 2000
a 748 747 2000
a 749 748 2000
a 750 749 2000
a 751 750 2000
a 752 751 2000
a 753 752 2000
a 754 753 2000
a 755 754 2000
a 756 755 2000
a 757 756 2000
a 758 757 2000
a 759 758 2000
a 760 759 2000
a 761 760 2000
a 762 761 2000
a 763 762 2000
a 764 763 2000
a 765 764 2000
a 766 765 2000
a 767 766 2000
a 768 767 2000
a 769 768 2000
a 770 769 2000
a 771 770 2000
a 772 771 2000
a 773 772 2000
a 774 773 2000
a 775 774 2000
a 776 775 2000
a 777 776 2000
a 778 777 2000
a 779 778 2000
a 780 779 2000
a 781 780 2000
a 782 781 2000
a 783 782 2000
a 784 783 2000
a 785 784 2000
a 786 785 2000
a 787 786 2000
a 788 787 2000
a 789 788 2000
a 790 789 2000
a 791 790 2000
a 792 791 2000
a 793 792 2000
a 794 793 2000
a 795 794 2000
a 796 795 2000
a 797 796 2000
a 798 797 2000
a 799 798 2000
a 800 799 2000
a 801 800 2000
a 802 801 2000
a 803 802 2000
a 804 803 2000
a 805 885 40
a 805 883 40
a 805 881 40
a 805 879 40
a 805 877 40
a 805 875 40
a 805 873 40
a 805 871 40
a 805 869 40
a 805 867 40
a 805 865 40
a 805 863 40
a 805 861 40
a 805 859 40
a 805 857 40
a 805 855 40
a 805 853 40
a 805 851 40
a 805 849 40
a 805 847 40
a 805 845 40
a 805 843 40
a 805 841 40
a 805 839 40
a 805 837 40
a 805 835 40
a 805 833 40
a 805 831 40
a 805 829 40
a 805 827 40
a 805 825 40
a 805 823 40
a 805 821 40
a 805 819 40
a 805 817 40
a 805 815 40
a 805 813 40
a 805 811 40
a 805 809 40
a 805 807 40
a 806 3 40
a 807 808 1
a 808 806 40
a 809 810 1
a 810 806 40
a 811 812 1
a 812 806 40
a 813 814 1
a 814 806 40
a 815 816 1
a 816 806 40
a 817 818 1
a 818 806 40
a 819 820 1
a 820 806 40
a 821 822 1
a 822 806 40
a 823 824 1
a 824 806 40
a 825 826 1
a 826 806 40
a 827 828 1
a 828 806 40
a 829 830 1
a 830 806 40
a 831 832 1
a 832 806 40
a 833 834 1
a 834 806 40
a 835 836 1
a 836 806 40
a 837 838 1
a 838 806 40
a 839 840 1
a 840 806 40
a 841 842 1
a 842 806 40
a 843 844 1
a 844 806 40
a 845 846 1
a 846 806 40
a 847 848 1
a 848 806 40
a 849 850 1
a 850 806 40
a 851 852 1
a 852 806 40
a 853 854 1
a 854 806 40
a 855 856 1
a 856 806 40
a 857 858 1
a 858 806 40
a 859 860 1
a 860 806 40
a 861 862 1
a 862 806 40
a 863 864 1
a 864 806 40
a 865 866 1
a 866 806 40
a 867 868 1
a 868 806 40
a 869 870 1
a 870 806 40
a 871 872 1
a 872 806 40
a 873 874 1
a 874 806 40
a 875 876 1
a 876 806 40
a 877 878 1
a 878 806 40
a 879 880 1
a 880 806 40
a 881 882 1
a 882 806 40
a 883 884 1
a 884 806 40
a 885 886 1
a 886 806 40
